experiments/21_JSA_experiments/solutions/scalability_ilp_20-36/imx8a/IN_20_10.json-ILP-SM-I.out.log
Academic license - for non-commercial use only - expires 2022-11-10
Using license file /home/benedond/Apps/gurobi/gurobi950/gurobi.lic
Using gurobi.env file
Set parameter Threads to value 1
Changed value of parameter TimeLimit to 1200.0
   Prev: inf  Min: 0.0  Max: inf  Default: inf
Gurobi Optimizer version 9.1.2 build v9.1.2rc0 (linux64)
Thread count: 2 physical cores, 4 logical processors, using up to 1 threads
Optimize a model with 1700 rows, 840 columns and 6478 nonzeros
Model fingerprint: 0xccf0be59
Variable types: 20 continuous, 820 integer (800 binary)
Coefficient statistics:
  Matrix range     [2e-01, 3e+03]
  Objective range  [1e-03, 2e-01]
  Bounds range     [1e+00, 1e+00]
  RHS range        [1e+00, 3e+03]

---------------------------------------------------------------------------
Multi-objectives: starting optimization with 1 objectives ... 
---------------------------------------------------------------------------
---------------------------------------------------------------------------

Multi-objectives: optimize objective 1 (min avg power cons) ...
---------------------------------------------------------------------------

Optimize a model with 1700 rows, 840 columns and 6478 nonzeros
Model fingerprint: 0xf3b2910e
Variable types: 20 continuous, 820 integer (800 binary)
Coefficient statistics:
  Matrix range     [2e-01, 3e+03]
  Objective range  [1e-03, 2e-01]
  Bounds range     [1e+00, 1e+00]
  RHS range        [1e+00, 3e+03]
Presolve removed 1111 rows and 545 columns
Presolve time: 0.06s
Presolved: 589 rows, 295 columns, 2160 nonzeros
Variable types: 14 continuous, 281 integer (267 binary)

Root relaxation: objective 1.274667e+00, 136 iterations, 0.00 seconds

    Nodes    |    Current Node    |     Objective Bounds      |     Work
 Expl Unexpl |  Obj  Depth IntInf | Incumbent    BestBd   Gap | It/Node Time

     0     0    1.27467    0   47          -    1.27467      -     -    0s
H    0     0                       3.6244368    1.27467  64.8%     -    0s
     0     0    1.29534    0   58    3.62444    1.29534  64.3%     -    0s
     0     0    1.34170    0   60    3.62444    1.34170  63.0%     -    0s
     0     0    1.48825    0   67    3.62444    1.48825  58.9%     -    0s
H    0     0                       3.5652299    1.48825  58.3%     -    0s
     0     0    1.50468    0   68    3.56523    1.50468  57.8%     -    0s
     0     0    1.60356    0   64    3.56523    1.60356  55.0%     -    0s
     0     0    1.64968    0   57    3.56523    1.64968  53.7%     -    0s
     0     0    1.76370    0   62    3.56523    1.76370  50.5%     -    0s
     0     0    1.80042    0   75    3.56523    1.80042  49.5%     -    0s
     0     0    1.80881    0   94    3.56523    1.80881  49.3%     -    0s
     0     0    1.80972    0   94    3.56523    1.80972  49.2%     -    0s
     0     0    1.81029    0   93    3.56523    1.81029  49.2%     -    0s
     0     0    1.81057    0   93    3.56523    1.81057  49.2%     -    0s
     0     0    1.81057    0   93    3.56523    1.81057  49.2%     -    0s
     0     0    1.82951    0   69    3.56523    1.82951  48.7%     -    0s
H    0     0                       3.5605403    1.82951  48.6%     -    0s
     0     0    1.83566    0   67    3.56054    1.83566  48.4%     -    0s
     0     0    1.83853    0   68    3.56054    1.83853  48.4%     -    0s
     0     0    1.83886    0   77    3.56054    1.83886  48.4%     -    0s
     0     0    1.84002    0   70    3.56054    1.84002  48.3%     -    0s
     0     0    1.84124    0   83    3.56054    1.84124  48.3%     -    0s
     0     0    1.84141    0   68    3.56054    1.84141  48.3%     -    0s
     0     0    1.85570    0   75    3.56054    1.85570  47.9%     -    0s
     0     0    1.85700    0   77    3.56054    1.85700  47.8%     -    0s
     0     0    1.85722    0   77    3.56054    1.85722  47.8%     -    0s
     0     0    1.85738    0   79    3.56054    1.85738  47.8%     -    0s
     0     0    1.86145    0   85    3.56054    1.86145  47.7%     -    0s
H    0     0                       3.5601265    1.86145  47.7%     -    0s
H    0     0                       3.5574713    1.86145  47.7%     -    0s
     0     0    1.86168    0   84    3.55747    1.86168  47.7%     -    0s
     0     0    1.86234    0   85    3.55747    1.86234  47.7%     -    0s
     0     0    1.86284    0   82    3.55747    1.86284  47.6%     -    0s
     0     0    1.86292    0   76    3.55747    1.86292  47.6%     -    0s
     0     0    1.86598    0   80    3.55747    1.86598  47.5%     -    0s
H    0     0                       3.4497816    1.86598  45.9%     -    0s
H    0     0                       3.3265747    1.86598  43.9%     -    0s
     0     0    1.86717    0   85    3.32657    1.86717  43.9%     -    0s
     0     0    1.86738    0   87    3.32657    1.86738  43.9%     -    0s
     0     0    1.86780    0   78    3.32657    1.86780  43.9%     -    0s
     0     0    1.86780    0   78    3.32657    1.86780  43.9%     -    0s
H    0     0                       3.0514253    1.86780  38.8%     -    0s
H    0     0                       3.0423449    1.86780  38.6%     -    0s
     0     2    1.86783    0   77    3.04234    1.86783  38.6%     -    0s
*   22    20              19       3.0108391    1.86907  37.9%  21.3    0s
H   27    17                       2.9509655    1.87483  36.5%  25.3    0s
H  260    68                       2.8438161    2.15918  24.1%  25.0    0s
H  280    72                       2.8411609    2.17847  23.3%  25.5    0s
*  321    95              28       2.8180690    2.17928  22.7%  25.0    0s
*  323    93              27       2.8063908    2.17928  22.3%  24.8    0s
H  367    98                       2.7373793    2.19501  19.8%  23.6    0s
H  373    96                       2.7164138    2.22156  18.2%  24.4    0s
*  793   146              31       2.7011264    2.41695  10.5%  28.5    1s
H  865   126                       2.6577242    2.43378  8.43%  28.5    1s

Cutting planes:
  Gomory: 3
  Cover: 50
  Implied bound: 69
  Clique: 4
  MIR: 130
  StrongCG: 14
  RLT: 31
  Relax-and-lift: 125

Explored 1777 nodes (44576 simplex iterations) in 1.64 seconds
Thread count was 1 (of 4 available processors)

Solution count 10: 2.65772 2.70113 2.71641 ... 3.01084

Optimal solution found (tolerance 1.00e-04)
Best objective 2.657724165146e+00, best bound 2.657724165146e+00, gap 0.0000%

---------------------------------------------------------------------------
Multi-objectives: solved in 1.64 seconds, solution count 10

